Route #1: 1 49 37 53 44 39 21 1
Route #2: 1 51 63 57 30 41 26 28 36 42 46 40 1
Route #3: 1 32 45 48 35 12 52 59 23 22 8 1
Route #4: 1 18 31 5 14 27 1
Route #5: 1 11 60 6 20 4 43 2 15 1
Route #6: 1 24 47 62 1
Route #7: 1 29 58 33 25 38 55 1
Route #8: 1 19 50 16 54 17 61 1
Route #9: 1 3 10 13 7 9 1
Route #10: 1 34 56 1
cost 1598.3848166107525
